certificates/rado_a13_c100_N37.cnf
c Rad2 upper bound instance: x1 + 13*x2 - x3 = 100, interval [1,37]
p cnf 37 210
1 5 8 0
-1 -5 -8 0
1 9 18 0
-1 -9 -18 0
1 10 31 0
-1 -10 -31 0
2 6 8 0
-2 -6 -8 0
2 9 19 0
-2 -9 -19 0
2 10 32 0
-2 -10 -32 0
3 7 8 0
-3 -7 -8 0
3 9 20 0
-3 -9 -20 0
3 10 33 0
-3 -10 -33 0
4 8 0
-4 -8 0
4 9 21 0
-4 -9 -21 0
4 10 34 0
-4 -10 -34 0
5 8 9 0
-5 -8 -9 0
5 9 22 0
-5 -9 -22 0
5 10 35 0
-5 -10 -35 0
6 8 10 0
-6 -8 -10 0
6 9 23 0
-6 -9 -23 0
6 10 36 0
-6 -10 -36 0
7 8 11 0
-7 -8 -11 0
7 9 24 0
-7 -9 -24 0
7 10 37 0
-7 -10 -37 0
8 12 0
-8 -12 0
8 9 25 0
-8 -9 -25 0
8 9 13 0
-8 -9 -13 0
9 26 0
-9 -26 0
1 7 10 0
-1 -7 -10 0
8 10 14 0
-8 -10 -14 0
9 10 27 0
-9 -10 -27 0
2 7 11 0
-2 -7 -11 0
8 11 15 0
-8 -11 -15 0
9 11 28 0
-9 -11 -28 0
3 7 12 0
-3 -7 -12 0
8 12 16 0
-8 -12 -16 0
9 12 29 0
-9 -12 -29 0
4 7 13 0
-4 -7 -13 0
8 13 17 0
-8 -13 -17 0
9 13 30 0
-9 -13 -30 0
5 7 14 0
-5 -7 -14 0
8 14 18 0
-8 -14 -18 0
9 14 31 0
-9 -14 -31 0
6 7 15 0
-6 -7 -15 0
8 15 19 0
-8 -15 -19 0
9 15 32 0
-9 -15 -32 0
7 16 0
-7 -16 0
8 16 20 0
-8 -16 -20 0
9 16 33 0
-9 -16 -33 0
7 8 17 0
-7 -8 -17 0
8 17 21 0
-8 -17 -21 0
9 17 34 0
-9 -17 -34 0
7 9 18 0
-7 -9 -18 0
8 18 22 0
-8 -18 -22 0
9 18 35 0
-9 -18 -35 0
7 10 19 0
-7 -10 -19 0
8 19 23 0
-8 -19 -23 0
9 19 36 0
-9 -19 -36 0
7 11 20 0
-7 -11 -20 0
8 20 24 0
-8 -20 -24 0
9 20 37 0
-9 -20 -37 0
7 12 21 0
-7 -12 -21 0
8 21 25 0
-8 -21 -25 0
7 13 22 0
-7 -13 -22 0
8 22 26 0
-8 -22 -26 0
1 6 23 0
-1 -6 -23 0
7 14 23 0
-7 -14 -23 0
8 23 27 0
-8 -23 -27 0
2 6 24 0
-2 -6 -24 0
7 15 24 0
-7 -15 -24 0
8 24 28 0
-8 -24 -28 0
3 6 25 0
-3 -6 -25 0
7 16 25 0
-7 -16 -25 0
8 25 29 0
-8 -25 -29 0
4 6 26 0
-4 -6 -26 0
7 17 26 0
-7 -17 -26 0
8 26 30 0
-8 -26 -30 0
5 6 27 0
-5 -6 -27 0
7 18 27 0
-7 -18 -27 0
8 27 31 0
-8 -27 -31 0
6 28 0
-6 -28 0
7 19 28 0
-7 -19 -28 0
8 28 32 0
-8 -28 -32 0
6 7 29 0
-6 -7 -29 0
7 20 29 0
-7 -20 -29 0
8 29 33 0
-8 -29 -33 0
6 8 30 0
-6 -8 -30 0
7 21 30 0
-7 -21 -30 0
8 30 34 0
-8 -30 -34 0
6 9 31 0
-6 -9 -31 0
7 22 31 0
-7 -22 -31 0
8 31 35 0
-8 -31 -35 0
6 10 32 0
-6 -10 -32 0
7 23 32 0
-7 -23 -32 0
8 32 36 0
-8 -32 -36 0
6 11 33 0
-6 -11 -33 0
7 24 33 0
-7 -24 -33 0
8 33 37 0
-8 -33 -37 0
6 12 34 0
-6 -12 -34 0
7 25 34 0
-7 -25 -34 0
6 13 35 0
-6 -13 -35 0
7 26 35 0
-7 -26 -35 0
1 5 36 0
-1 -5 -36 0
6 14 36 0
-6 -14 -36 0
7 27 36 0
-7 -27 -36 0
2 5 37 0
-2 -5 -37 0
6 15 37 0
-6 -15 -37 0
7 28 37 0
-7 -28 -37 0
