certificates/rado_a13_c100_N37.drat
8 -34 0
10 32 -8 0
-8 -35 -36 -37 0
-10 8 -35 -36 0
8 -35 -36 0
d -10 8 -35 -36 0
-35 -36 -37 0
d -8 -35 -36 -37 0
10 8 -36 0
8 -36 -37 0
-36 -37 0
d 8 -36 -37 0
-10 -8 36 0
-8 -37 0
-6 -37 0
-37 0
-10 -32 8 0
36 8 0
8 0
-4 0
-12 0
6 0
-2 0
-10 0
-28 0
-30 0
5 0
32 0
34 0
7 0
-1 0
-9 0
-27 0
-36 0
-3 0
-11 0
-16 0
-17 0
-25 0
-14 0
-15 0
-29 0
-23 0
31 0
18 0
21 0
26 0
0
